Optimal - objective value 2893.83820000
      8 x_8      1.04999999999624                       0
      9 x_9      12.9500000000093                       0
     12 x_12                  14                       0
     26 x_26     2.3099999999987                       0
     29 x_29     11.6900000000013                       0
     31 x_31     1.04999999999918                       0
     38 x_38     12.9500000000165                       0
     44 x_44     3.35999999999447                       0
     50 x_50               10.64                  -17.56
     51 x_51      2.310000000011                       0
     54 x_54               11.69                  -31.86
     63 y_8                    1                    2.11
     64 y_9                    1                    1.17
     67 y_12                   1                    1.02
     81 y_26                   1                    2.55
     84 y_29                   1                    1.29
     86 y_31                   1                    1.57
     93 y_38                   1                    0.57
     99 y_44                   1                    1.25
    105 y_50                   1                     0.5
    106 y_51                   1                    2.51
    109 y_54                   1                    2.84
